* Generated by MPModelProtoExporter
*   Name             :
*   Format           : Free
*   Constraints      : 3
*   Variables        : 2
*     Binary         : 0
*     Integer        : 0
*     Continuous     : 2
NAME          OBJSENSE MAX
ROWS
 N  COST
 L  auto_c_000000000
 G  auto_c_000000001
 L  auto_c_000000002
COLUMNS
    x                 COST                   3  auto_c_000000000       1
    x                 auto_c_000000001       3  auto_c_000000002       1
    y                 COST                   4  auto_c_000000000       2
    y                 auto_c_000000001      -1  auto_c_000000002      -1
RHS
    RHS               auto_c_000000000      14  auto_c_000000001       0
    RHS               auto_c_000000002       2
BOUNDS
 PL BOUND             x
 PL BOUND             y
ENDATA
